c preprocessed version of 1iqz_graph, 77 vertices, 839 edges
p td 77 839
75 76
74 76
74 75
73 76
73 75
73 74
72 76
72 75
72 74
72 73
71 76
71 75
71 74
71 73
71 72
70 72
70 71
69 75
69 74
69 71
69 70
68 76
68 75
68 74
68 73
68 72
68 71
68 70
68 69
67 75
67 74
67 70
67 69
67 68
66 75
66 74
66 69
66 68
66 67
65 75
65 74
65 68
65 67
65 66
64 76
64 75
64 74
64 73
64 72
64 71
64 68
64 67
64 66
64 65
63 75
63 72
63 68
63 65
63 64
62 76
62 75
62 74
62 73
62 72
62 71
62 68
62 67
62 66
62 65
62 64
62 63
61 72
61 68
61 64
61 63
61 62
60 73
60 72
60 62
60 61
59 76
59 75
59 73
59 72
59 63
59 62
59 61
59 60
58 62
58 61
58 60
58 59
57 60
57 59
57 58
56 61
56 57
55 63
55 61
55 59
55 56
54 75
54 72
54 68
54 65
54 64
54 63
54 62
54 61
54 60
54 59
54 56
54 55
53 63
53 62
53 61
53 60
53 56
53 55
53 54
52 61
52 56
52 55
52 54
52 53
51 65
51 63
51 61
51 56
51 55
51 54
51 53
51 52
50 68
50 65
50 64
50 63
50 62
50 61
50 55
50 54
50 53
50 52
50 51
49 63
49 61
49 56
49 53
49 52
49 51
49 50
48 63
48 56
48 55
48 52
48 51
48 50
48 49
47 65
47 64
47 63
47 61
47 55
47 54
47 52
47 51
47 50
47 49
47 48
46 63
46 53
46 52
46 50
46 49
46 48
46 47
45 50
45 49
45 48
45 47
45 46
44 65
44 51
44 50
44 48
44 47
44 46
44 45
43 50
43 49
43 47
43 46
43 45
43 44
42 68
42 65
42 63
42 62
42 61
42 54
42 53
42 51
42 50
42 49
42 48
42 47
42 46
42 45
42 44
42 43
41 67
41 66
41 65
41 63
41 50
41 47
41 46
41 44
41 43
41 42
40 67
40 50
40 46
40 43
40 42
40 41
39 70
39 69
39 68
39 67
39 66
39 41
39 40
38 75
38 74
38 73
38 72
38 71
38 70
38 69
38 68
38 67
38 66
38 64
38 63
38 62
38 61
38 54
38 50
38 42
38 40
38 39
37 72
37 71
37 70
37 69
37 68
37 67
37 40
37 39
37 38
36 72
36 70
36 68
36 62
36 61
36 60
36 39
36 38
36 37
35 70
35 40
35 39
35 37
35 36
34 70
34 69
34 68
34 67
34 63
34 61
34 54
34 53
34 50
34 46
34 42
34 41
34 40
34 39
34 38
34 37
34 36
34 35
33 68
33 67
33 63
33 62
33 61
33 54
33 53
33 50
33 49
33 47
33 46
33 45
33 43
33 42
33 41
33 40
33 39
33 38
33 37
33 36
33 35
33 34
32 50
32 46
32 42
32 40
32 36
32 35
32 34
32 33
31 72
31 68
31 63
31 62
31 61
31 60
31 54
31 53
31 50
31 49
31 47
31 46
31 43
31 42
31 41
31 40
31 39
31 38
31 37
31 36
31 35
31 34
31 33
31 32
30 72
30 70
30 61
30 60
30 38
30 37
30 36
30 35
30 34
30 33
30 32
30 31
29 63
29 62
29 61
29 60
29 58
29 54
29 53
29 50
29 42
29 36
29 32
29 31
29 30
28 61
28 60
28 58
28 36
28 30
28 29
27 29
27 28
26 36
26 30
26 28
26 27
25 30
25 28
25 27
25 26
24 36
24 35
24 32
24 31
24 30
24 29
24 28
24 27
24 26
24 25
23 61
23 32
23 30
23 29
23 28
23 27
23 26
23 25
23 24
22 36
22 35
22 33
22 32
22 31
22 30
22 29
22 25
22 24
22 23
21 68
21 63
21 62
21 61
21 60
21 56
21 54
21 53
21 52
21 50
21 49
21 46
21 42
21 38
21 36
21 34
21 33
21 32
21 31
21 30
21 29
21 23
21 22
20 68
20 63
20 62
20 61
20 60
20 54
20 53
20 51
20 50
20 49
20 48
20 47
20 46
20 45
20 43
20 42
20 41
20 40
20 38
20 36
20 34
20 33
20 32
20 31
20 30
20 29
20 22
20 21
19 53
19 50
19 49
19 48
19 46
19 45
19 43
19 42
19 33
19 32
19 31
19 22
19 21
19 20
18 53
18 49
18 46
18 32
18 29
18 23
18 22
18 21
18 20
18 19
17 63
17 61
17 60
17 56
17 54
17 53
17 52
17 51
17 50
17 49
17 48
17 47
17 46
17 45
17 43
17 42
17 34
17 33
17 32
17 31
17 29
17 21
17 20
17 19
17 18
16 61
16 57
16 56
16 55
16 53
16 52
16 51
16 49
16 48
16 46
16 21
16 20
16 19
16 18
16 17
15 56
15 53
15 52
15 49
15 29
15 23
15 18
15 17
15 16
14 61
14 60
14 53
14 32
14 31
14 30
14 29
14 28
14 27
14 23
14 22
14 21
14 20
14 18
14 17
14 16
14 15
13 61
13 58
13 57
13 56
13 55
13 53
13 52
13 29
13 23
13 17
13 16
13 15
13 14
12 29
12 27
12 23
12 22
12 21
12 18
12 15
12 14
12 13
11 58
11 57
11 30
11 29
11 28
11 27
11 26
11 25
11 24
11 23
11 14
11 12
10 60
10 58
10 57
10 29
10 28
10 27
10 13
10 11
9 76
9 73
9 72
9 62
9 60
9 59
9 58
9 57
9 29
9 28
9 10
8 76
8 73
8 72
8 71
8 62
8 60
8 36
8 30
8 28
8 10
8 9
7 73
7 72
7 70
7 61
7 60
7 38
7 36
7 35
7 31
7 30
7 29
7 28
7 26
7 25
7 24
7 23
7 22
7 21
7 11
7 9
7 8
6 76
6 75
6 74
6 73
6 72
6 71
6 68
6 64
6 62
6 61
6 60
6 59
6 58
6 54
6 38
6 36
6 30
6 29
6 21
6 9
6 8
6 7
5 72
5 68
5 63
5 62
5 61
5 60
5 58
5 57
5 56
5 54
5 53
5 50
5 42
5 38
5 36
5 34
5 33
5 32
5 31
5 30
5 29
5 28
5 24
5 23
5 22
5 21
5 20
5 17
5 14
5 13
5 11
5 10
5 9
5 8
5 7
5 6
4 75
4 74
4 73
4 72
4 71
4 70
4 69
4 68
4 67
4 66
4 64
4 63
4 62
4 61
4 60
4 54
4 53
4 50
4 42
4 38
4 37
4 36
4 34
4 33
4 31
4 30
4 29
4 21
4 20
4 8
4 7
4 6
4 5
3 72
3 68
3 64
3 63
3 62
3 61
3 60
3 56
3 55
3 54
3 53
3 52
3 51
3 50
3 49
3 47
3 46
3 43
3 42
3 41
3 40
3 38
3 36
3 34
3 33
3 32
3 31
3 30
3 29
3 21
3 20
3 19
3 17
3 16
3 5
3 4
2 75
2 74
2 69
2 68
2 67
2 66
2 65
2 64
2 63
2 62
2 61
2 54
2 50
2 47
2 42
2 41
2 40
2 39
2 38
2 37
2 34
2 33
2 31
2 20
2 4
2 3
1 68
1 65
1 64
1 63
1 62
1 61
1 54
1 53
1 51
1 50
1 48
1 47
1 46
1 44
1 43
1 42
1 41
1 38
1 34
1 33
1 31
1 21
1 20
1 17
1 4
1 3
1 2
0 69
0 67
0 66
0 65
0 64
0 63
0 47
0 44
0 43
0 42
0 41
0 40
0 39
0 33
0 2
0 1
